NAME : A-n53-k7
COMMENT : (Augerat et al, Min no of trucks: 7, Optimal value: 1010)
TYPE : CVRP
DIMENSION : 53
EDGE_WEIGHT_TYPE : EUC_2D 
CAPACITY : 100
NODE_COORD_SECTION 
 1 24 63
 2 35 60
 3 79 46
 4 3 45
 5 42 50
 6 3 40
 7 29 96
 8 47 30
 9 54 77
 10 36 30
 11 83 86
 12 30 6
 13 55 29
 14 13 2
 15 1 19
 16 98 1
 17 75 10
 18 39 23
 19 62 91
 20 96 9
 21 27 87
 22 14 16
 23 52 49
 24 95 21
 25 30 6
 26 18 40
 27 82 90
 28 50 79
 29 48 49
 30 82 73
 31 64 62
 32 34 78
 33 83 6
 34 3 77
 35 18 8
 36 53 86
 37 88 51
 38 77 51
 39 58 89
 40 12 44
 41 70 88
 42 36 17
 43 85 23
 44 93 30
 45 68 67
 46 71 34
 47 56 73
 48 37 37
 49 78 20
 50 88 69
 51 95 42
 52 44 71
 53 18 1
DEMAND_SECTION 
1 0 
2 2 
3 12 
4 14 
5 2 
6 17 
7 20 
8 2 
9 26 
10 7 
11 24 
12 23 
13 13 
14 25 
15 20 
16 3 
17 18 
18 23 
19 6 
20 2 
21 13 
22 22 
23 3 
24 6 
25 7 
26 1 
27 18 
28 18 
29 10 
30 2 
31 9 
32 10 
33 8 
34 30 
35 16 
36 23 
37 2 
38 18 
39 22 
40 1 
41 8 
42 4 
43 26 
44 21 
45 2 
46 15 
47 25 
48 22 
49 19 
50 3 
51 3 
52 5 
53 13 
DEPOT_SECTION 
 1  
 -1  
EOF 
